c instance by G2
c solution = 11111001110100111010011
c Known solution cost is 1131 
p cnf 23 30
w 73 79 33 9 97 49 73 44 33 99 69 29 70 8 26 36 98 13 51 78 3 5 56
18 9 -23 0
18 5 -19 0
-15 -22 -18 0
-10 -17 19 0
-11 16 -22 0
7 16 -19 0
4 -8 -23 0
-19 12 -16 0
6 -4 -21 0
-21 -19 -13 0
-8 -6 -4 0
18 3 21 0
10 20 -16 0
18 -7 20 0
-15 -16 1 0
18 21 8 0
-22 7 -20 0
20 12 -9 0
-12 -16 15 0
-2 -13 21 0
-16 18 17 0
-8 23 -10 0
22 11 7 0
-3 2 -22 0
7 -14 20 0
-16 -12 -11 0
10 18 19 0
-21 3 -2 0
-11 8 7 0
1 -2 -8 0
